
  12    4
  10   10   10   10

   0   0   0   0   0   3 2 4 6 
   7  10  10  10  10   2 5 3 
   6  10  10  10  10   4 11 10 8 7 
   2  10  10  10  10   3 11 10 7 
   4  10  10  10  10   1 8 
   9  10  10  10  10   1 7 
   5  10  10  10  10   1 9 
   3  10  10  10  10   1 9 
   2  10  10  10  10   1 12
  10  10  10  10  10   1 12
   8  10  10  10  10   1 12
   0   0   0   0   0   0 
